out.txt
0
1
2
3
4
5
6
7
8
9
10
11
12
13
14
15
16
17
18
19
20
21
22
23
24
25
26
27
28
29
30
31
32
33
34
35
36
37
38
39
40
41
42
43
44
45
46
47
48
49
50
51
52
53
54
55
56
57
58
59
60
61
62
63
64
65
66
67
68
69
70
71
72
73
74
75
76
77
78
79
80
81
82
83
84
85
86
87
88
89
90
91
92
93
94
95
96
97
98
99
==================================================
max_gap = 0.1
t_mean = 20.015625
t_std = 10.4921875
s_mean = 0.76
s_std = 0.42708313008125254
==================================================
0.01
0
1
2
3
4
5
6
7
8
9
10
11
12
13
14
15
16
17
18
19
20
21
22
23
24
25
26
27
28
29
30
31
32
33
34
35
36
37
38
39
40
41
42
43
44
45
46
47
48
49
50
51
52
53
54
55
56
57
58
59
60
61
62
63
64
65
66
67
68
69
70
71
72
73
74
75
76
77
78
79
80
81
82
83
84
85
86
87
88
89
90
91
92
93
94
95
96
97
98
99
==================================================
max_gap = 0.01
t_mean = 10.8046875
t_std = 2.802734375
s_mean = 0.73
s_std = 0.44395945760846234
==================================================
0.001
0
1
2
3
4
5
6
7
8
9
10
11
12
13
14
15
16
17
18
19
20
21
22
23
24
25
26
27
28
29
30
31
32
33
34
35
36
37
38
39
40
41
42
43
44
45
46
47
48
49
50
51
52
53
54
55
56
57
58
59
60
61
62
63
64
65
66
67
68
69
70
71
72
73
74
75
76
77
78
79
80
81
82
83
84
85
86
87
88
89
90
91
92
93
94
95
96
97
98
99
==================================================
max_gap = 0.001
t_mean = 11.796875
t_std = 3.548828125
s_mean = 0.81
s_std = 0.3923009049186606
==================================================
0.0001
0
1
2
3
4
5
6
7
8
9
10
11
12
13
14
15
16
17
18
19
20
21
22
23
24
25
26
27
28
29
30
31
32
33
34
35
36
37
38
39
40
41
42
43
44
45
46
47
48
49
50
51
52
53
54
55
56
57
58
59
60
61
62
63
64
65
66
67
68
69
70
71
72
73
74
75
76
77
78
79
80
81
82
83
84
85
86
87
88
89
90
91
92
93
94
95
96
97
98
99
==================================================
max_gap = 0.0001
t_mean = 38.9375
C:\Users\Usuario\AppData\Local\Programs\Python\Python311\Lib\site-packages\numpy\core\_methods.py:187: RuntimeWarning: overflow encountered in reduce     
  ret = umr_sum(x, axis, dtype, out, keepdims=keepdims, where=where)
t_std = inf
s_mean = 0.82
s_std = 0.38418745424597095
==================================================
1e-05
0
1
2
3
4
5
6
7
8
9
10
11
12
13
14
15
16
17
18
19
20
21
22
23
24
25
26
27
28
29
30
31
32
33
34
35
36
37
38
39
40
41
42
43
44
45
46
47
48
49
50
51
52
53
54
55
56
57
58
59
60
61
62
63
64
65
66
67
68
69
70
71
72
73
74
75
76
77
78
79
80
81
82
83
84
85
86
87
88
89
90
91
92
93
94
95
96
97
98
99
==================================================
max_gap = 1e-05
t_mean = 12.125
t_std = 8.140625
s_mean = 0.82
s_std = 0.38418745424597095
==================================================