out.sol
# Solution for model UnassignedDistance
# Objective value = 0
x[0][0] 2.2345193661260243e+00
x[0][1] 1.5404449551696857e+00
x[0][2] 9.4055000000000788e-01
x[1][0] 9.7231936612594017e-01
x[1][1] 0
x[1][2] 5.0000000000000622e-01
x[2][0] 4.7231936612594727e-01
x[2][1] 0
x[2][2] 5.0000000000000622e-01
x[3][0] 0
x[3][1] 0
x[3][2] 0
v[0,1][0] 1.2622000000000841e+00
v[0,1][1] 1.5404449551696857e+00
v[0,1][2] 4.4055000000000166e-01
v[0,2][0] 1.7622000000000770e+00
v[0,2][1] 1.5404449551696855e+00
v[0,2][2] 4.4055000000000166e-01
v[0,3][0] 2.2345193661260243e+00
v[0,3][1] 1.5404449551696855e+00
v[0,3][2] 9.4055000000000788e-01
v[1,2][0] 4.9999999999999289e-01
v[1,2][1] 0
v[1,2][2] 0
v[1,3][0] 9.7231936612594028e-01
v[1,3][1] 0
v[1,3][2] 5.0000000000000622e-01
v[2,3][0] 4.7231936612594727e-01
v[2,3][1] 0
v[2,3][2] 5.0000000000000622e-01
w[0,1] 2.0396577660009281e+00
w[0,2] 2.3816808775332885e+00
w[0,3] 2.8724
w[1,2] 4.9999999999999378e-01
w[1,3] 1.0933457594665812e+00
w[2,3] 6.8781217175741960e-01
a[0,1,0] 0
a[0,1,1] 0
a[0,1,2] 0
a[0,1,3] 1
a[0,1,4] 0
a[0,1,5] 0
a[0,2,0] 0
a[0,2,1] 0
a[0,2,2] 0
a[0,2,3] 0
a[0,2,4] 1
a[0,2,5] 0
a[0,3,0] 0
a[0,3,1] 0
a[0,3,2] 0
a[0,3,3] 0
a[0,3,4] 0
a[0,3,5] 1
a[1,2,0] 1
a[1,2,1] 0
a[1,2,2] 0
a[1,2,3] 0
a[1,2,4] 0
a[1,2,5] 0
a[1,3,0] 0
a[1,3,1] 1
a[1,3,2] 0
a[1,3,3] 0
a[1,3,4] 0
a[1,3,5] 0
a[2,3,0] 0
a[2,3,1] 0
a[2,3,2] 1
a[2,3,3] 0
a[2,3,4] 0
a[2,3,5] 0
z[0,1,0] 0
z[0,1,1] 0
z[0,1,2] 0
z[0,1,3] 2.0396577660009418e+00
z[0,1,4] 0
z[0,1,5] 0
z[0,2,0] 0
z[0,2,1] 0
z[0,2,2] 0
z[0,2,3] 0
z[0,2,4] 2.3816808775332974e+00
z[0,2,5] 0
z[0,3,0] 0
z[0,3,1] 0
z[0,3,2] 0
z[0,3,3] 0
z[0,3,4] 0
z[0,3,5] 2.8724
z[1,2,0] 0.5
z[1,2,1] 0
z[1,2,2] 0
z[1,2,3] 0
z[1,2,4] 0
z[1,2,5] 0
z[1,3,0] 0
z[1,3,1] 1.0933457594665754e+00
z[1,3,2] 0
z[1,3,3] 0
z[1,3,4] 0
z[1,3,5] 0
z[2,3,0] 0
z[2,3,1] 0
z[2,3,2] 0.687812171757415
z[2,3,3] 0
z[2,3,4] 0
z[2,3,5] 0
